TYPE : Vertex Cover
DIMENSION: 29
EDGE_DATA_SECTION:
0 8
0 14
0 18
0 23
0 24
0 25
1 4
1 6
1 9
1 15
1 19
1 21
1 25
1 28
2 4
2 7
2 8
2 19
2 20
2 22
2 27
3 13
3 17
3 20
3 26
3 27
4 12
4 16
4 17
4 20
4 22
4 23
4 24
4 25
4 27
5 11
5 12
5 23
5 28
6 9
6 10
6 12
6 13
6 14
6 17
6 24
7 12
7 14
7 16
7 17
7 18
7 21
7 27
8 15
8 21
8 22
8 23
8 24
9 10
9 14
9 16
9 22
9 27
10 12
10 17
10 19
10 21
10 27
11 15
11 19
11 22
13 18
13 24
14 19
14 24
14 26
14 27
15 27
16 17
16 22
16 23
16 24
16 25
16 26
17 20
17 24
19 20
20 25
20 28
22 26
24 25
24 28
-1
VERTEX_DEGREE:
6.0 8.0 7.0 5.0 11.0 4.0 8.0 8.0 7.0 7.0 7.0 4.0 5.0 4.0 8.0 4.0 9.0 8.0 3.0 6.0 7.0 4.0 7.0 5.0 10.0 6.0 4.0 8.0 4.0
VERTEX_COVER:
0 1 3 4 5 6 7 8 10 13 14 15 16 19 20 22 24 27
EOF
